Traveling Salesman Problem/TSP_generados/Aleatorio1620392405_16.tsp
NAME: Aleatorio1620392405_16.tsp
COMMENT: Randomly generated scenario
TYPE: TSP
DIMENSION: 16
EDGE_WEIGHT_TYPE: ATT
NODE_COORD_SECTION
1 22.25 47.17
2 2.36 27.69
3 36.71 22.34
4 38.29 34.71
5 30.7 0.78
6 14.39 10.17
7 0.2 32.98
8 2.62 32.89
9 31.86 23.01
10 4.16 37.07
11 22.98 33.13
12 0.03 47.85
13 8.88 4.36
14 34.14 34.94
15 33.18 34.4
16 3.7 13.51
