Traveling Salesman Problem/TSP_generados/Aleatorio1620392405_16.opt.tour
NAME: Aleatorio1620392405_16.opt.tour
COMMENT: Optimal solution for Aleatorio1620392405_16 (167.17196580150633)
TYPE: TOUR
DIMENSION: 16
TOUR_SECTION
1 11 15 14 4 3 9 5 6 13 16 2 7 8 10 12
-1
EOF
